10J3M/DAT/10J3MNLL-15.dat
10 3
32.3846 32.3846
26.4344 26.4344
23.2805 23.2805
21.0598 21.0598
19.9097 19.9097
23.3578 23.3578
30.0457 30.0457
22.9279 22.9279
23.2534 23.2534
29.1659 29.1659
83.9399