10J3M/SOL/10J3MNLL-15.sol
solution status: optimal solution found
objective value:                              83.9399
x#1#3                                               1 	(obj:0)
x#2#1                                               1 	(obj:0)
x#3#1                                               1 	(obj:0)
x#4#2                                               1 	(obj:0)
x#5#1                                               1 	(obj:0)
x#6#2                               0.714913219566912 	(obj:0)
x#6#3                               0.285086780433089 	(obj:0)
x#7#3                                               1 	(obj:0)
x#8#2                                               1 	(obj:0)
x#9#2                                               1 	(obj:0)
x#10#1                              0.490823187352353 	(obj:0)
x#10#3                              0.509176812647647 	(obj:0)
z                                             83.9399 	(obj:1)
